(set-logic QF_UF)
(set-option :produce-models true)
(declare-const A Bool)
(declare-const B Bool)
(declare-const C Bool)
(declare-const D Bool)
(declare-const E Bool)
(declare-const F Bool)
(assert
	(and
		(or (not A) B )
		(or (not B) A )
		(or (not C) D )
		(or (not C) A )	
		(or E F )
	) 
)
(check-sat)
(get-model)
(exit)
